32      4       
19      13      18      16      
0       0       0       0       0       3       2       12      13      
6       7       0       0       1       1       3       
1       10      2       0       0       2       4       31      
5       4       0       18      0       3       5       16      30      
7       0       8       0       4       2       6       7       
8       0       5       0       1       1       8       
5       5       0       0       1       3       11      23      29      
7       0       5       8       0       1       9       
9       0       1       1       0       2       10      23      
1       6       0       1       0       1       14      
2       0       4       2       0       1       14      
7       0       0       1       8       1       14      
9       0       0       8       2       1       14      
10      0       0       8       9       1       15      
9       0       1       0       3       2       17      28      
9       1       1       0       0       2       17      28      
2       3       0       1       0       2       18      27      
2       1       4       0       0       1       19      
1       0       6       6       0       1       20      
10      5       0       5       0       1       21      
1       1       1       0       0       2       22      26      
5       1       0       0       12      1       24      
4       11      0       0       1       1       24      
7       14      1       0       0       1       25      
9       1       0       0       5       1       32      
6       0       7       0       1       1       32      
2       1       0       0       5       1       32      
3       0       0       1       6       1       32      
8       0       1       1       0       1       32      
5       0       2       1       0       1       32      
4       0       0       6       1       1       32      
0       0       0       0       0       0       
